/*********************************************
    * Lab01 - simple
    * Author: Coso
    * Creation Date: Mar, 2019
    *********************************************/
instance_name = "small_instance_10_simple";

d = 2;
r = 3;

SCj = [153 114];
Dk = [31 54 54];

Cjk = [[34 70 41]
 [69 85 34]];
